SCIP version 5.0.0 [precision: 8 byte] [memory: block] [mode: optimized] [LP solver: NONE] [GitHash: 3bbd232]
Copyright (C) 2002-2017 Konrad-Zuse-Zentrum fuer Informationstechnik Berlin (ZIB)

External codes: 
  Readline EditLine w  GNU library for command line editing (gnu.org/s/readline)
  CppAD 20160000.1     Algorithmic Differentiation of C++ algorithms developed by B. Bell (www.coin-or.org/CppAD)
  ZLIB 1.2.5           General purpose compression library by J. Gailly and M. Adler (zlib.net)
  GMP 6.1.2            GNU Multiple Precision Arithmetic Library developed by T. Granlund (gmplib.org)

user parameter file <scip.set> not found - using default parameters

read problem <../../Split_data/output/parkin/5/4_sample_parkin.logreg>
============

File name	:	../../Split_data/output/parkin/5/4_sample_parkin.logreg
Problem name 	:	4_sample_parkin
Number of data	:	156
Number of var	:	22
The given data has linear independence

[dim=1] time: 0.003705
[dim=2] time: 0.007397
[dim=3] time: 0.010757
[dim=4] time: 0.013795
[dim=5] time: 0.016591
[dim=6] time: 0.01936
[dim=7] Time of forward = 0.022005sec.
AIC: 97.747
k: 6

[dim=22] time: 0.047052
[dim=21] time: 0.070321
[dim=20] time: 0.081513
[dim=19] time: 0.091208
[dim=18] time: 0.099423
[dim=17] time: 0.115296
[dim=16] time: 0.123124
[dim=15] time: 0.13246
[dim=14] time: 0.139543
[dim=13] time: 0.145257
[dim=12] time: 0.153352
[dim=11] time: 0.157841
[dim=10] Time of backward = 0.159783sec.
AIC: 87.943
k: 11
